tsp_instances/TSP50/instance90.tsp
NODE_COORD_SECTION
0 41 65
1 53 182
2 81 89
3 197 56
4 30 36
5 28 127
6 149 156
7 163 96
8 38 127
9 126 6
10 124 70
11 138 24
12 157 157
13 23 87
14 77 139
15 6 79
16 196 175
17 199 145
18 136 114
19 187 26
20 108 132
21 34 74
22 52 50
23 98 74
24 81 197
25 155 38
26 175 74
27 126 33
28 133 64
29 119 120
30 96 171
31 32 62
32 182 125
33 170 4
34 184 5
35 47 91
36 164 11
37 40 166
38 49 45
39 200 17
40 113 87
41 106 51
42 140 187
43 136 92
44 2 75
45 38 97
46 91 73
47 49 62
48 30 87
49 89 78
