tsp_instances/TSP50/instance90.opt.tour
TOUR_SECTION
1
32
22
36
3
50
47
24
41
44
29
11
42
28
10
12
26
37
34
35
40
20
4
27
8
33
18
17
43
13
7
19
30
21
15
31
25
2
38
6
9
46
49
14
16
45
5
39
23
48
-1